NAME : single.2237.tour
COMMENT : Length = 2237
COMMENT : Found by LKH [Keld Helsgaun] Wed Dec 15 00:59:52 2021
TYPE : TOUR
DIMENSION : 18
TOUR_SECTION
1
2
8
7
6
9
14
13
5
3
4
12
10
11
15
16
17
18
-1
EOF
